problem_generation/data/GISP/train/er_n=61_m=1122_p=0.60_SET2_setparam=100.00_alpha=0.50_767.lp
maximize
OBJ:100x0 + 100x1 + 100x2 + 100x3 + 100x4 + 100x5 + 100x6 + 100x7 + 100x8 + 100x9 + 100x10 + 100x11 + 100x12 + 100x13 + 100x14 + 100x15 + 100x16 + 100x17 + 100x18 + 100x19 + 100x20 + 100x21 + 100x22 + 100x23 + 100x24 + 100x25 + 100x26 + 100x27 + 100x28 + 100x29 + 100x30 + 100x31 + 100x32 + 100x33 + 100x34 + 100x35 + 100x36 + 100x37 + 100x38 + 100x39 + 100x40 + 100x41 + 100x42 + 100x43 + 100x44 + 100x45 + 100x46 + 100x47 + 100x48 + 100x49 + 100x50 + 100x51 + 100x52 + 100x53 + 100x54 + 100x55 + 100x56 + 100x57 + 100x58 + 100x59 + 100x60 - y18_26 - y26_39 - y17_58 - y28_58 - y8_9 - y6_48 - y29_50 - y10_27 - y44_47 - y2_41 - y3_6 - y10_54 - y25_43 - y44_56 - y22_28 - y2_59 - y14_24 - y3_42 - y14_42 - y14_51 - y15_16 - y15_25 - y18_21 - y47_57 - y28_53 - y18_30 - y9_49 - y5_60 - y9_58 - y29_36 - y48_49 - y6_52 - y21_59 - y10_31 - y2_45 - y3_10 - y25_47 - y51_59 - y3_19 - y43_55 - y13_51 - y3_28 - y35_60 - y14_37 - y55_56 - y28_39 - y7_16 - y9_44 - y5_55 - y29_40 - y48_53 - y40_58 - y21_54 - y10_17 - y33_37 - y2_40 - y3_5 - y3_14 - y24_46 - y1_53 - y13_55 - y14_32 - y24_55 - y16_60 - y17_34 - y36_47 - y9_30 - y17_43 - y47_56 - y17_52 - y6_15 - y28_52 - y9_48 - y6_24 - y21_31 - y40_44 - y21_40 - y10_12 - y2_8 - y20_53 - y2_26 - y10_39 - y32_36 - y43_45 - y24_41 - y35_41 - y43_54 - y13_50 - y1_57 - y13_59 - y16_55 - y36_42 - y5_45 - y6_10 - y28_47 - y9_43 - y5_54 - y9_52 - y21_26 - y27_60 - y42_58 - y39_52 - y10_25 - y2_21 - y4_58 - y32_40 - y32_49 - y24_45 - y16_41 - y24_54 - y17_24 - y36_37 - y9_20 - y5_40 - y28_42 - y9_47 - y42_44 - y6_32 - y42_53 - y8_60 - y20_34 - y31_34 - y10_11 - y2_7 - y20_43 - y4_44 - y13_22 - y16_18 - y32_44 - y43_44 - y43_53 - y16_45 - y5_8 - y1_56 - y46_55 - y5_26 - y17_37 - y30_46 - y42_57 - y11_51 - y39_42 - y12_25 - y12_34 - y20_47 - y12_43 - y31_56 - y12_52 - y23_52 - y13_26 - y4_57 - y32_39 - y1_42 - y1_51 - y5_12 - y46_50 - y5_21 - y9_19 - y15_53 - y5_30 - y38_55 - y18_58 - y6_13 - y8_32 - y42_43 - y27_54 - y11_37 - y50_56 - y19_50 - y0_46 - y8_59 - y0_55 - y20_42 - y31_51 - y12_47 - y23_47 - y23_56 - y13_21 - y16_17 - y45_53 - y16_26 - y1_46 - y5_16 - y7_53 - y18_53 - y27_31 - y50_51 - y0_32 - y11_32 - y19_45 - y27_58 - y11_41 - y12_15 - y4_11 - y0_59 - y4_29 - y4_38 - y13_16 - y4_47 - y34_48 - y1_23 - y22_55 - y3_51 - y37_53 - y26_43 - y38_45 - y15_52 - y26_52 - y38_54 - y49_54 - y7_57 - y19_22 - y0_18 - y11_18 - y11_27 - y19_40 - y30_40 - y11_36 - y30_49 - y11_45 - y41_46 - y12_19 - y41_55 - y20_32 - y33_60 - y25_56 - y22_50 - y3_46 - y14_46 - y14_55 - y15_29 - y15_38 - y38_40 - y15_47 - y38_49 - y18_43 - y0_4 - y27_30 - y19_26 - y33_46 - y12_23 - y4_19 - y10_53 - y1_4 - y25_60 - y34_38 - y3_50 - y14_50 - y37_52 - y7_20 - y18_20 - y26_33 - y7_29 - y18_29 - y7_38 - y26_51 - y0_8 - y18_56 - y8_21 - y40_53 - y8_30 - y21_58 - y41_54 - y52_54 - y10_48 - y33_50 - y2_44 - y33_59 - y2_53 - y3_27 - y22_40 - y34_42 - y3_36 - y34_51 - y45_51 - y3_45 - y14_45 - y37_56 - y15_19 - y7_24 - y18_24 - y15_37 - y18_33 - y7_42 - y18_42 - y0_3 - y48_52 - y0_12 - y11_12 - y19_25 - y21_44 - y29_48 - y29_57 - y40_57 - y21_53 - y11_30 - y4_9 - y41_58 - y2_39 - y52_58 - y10_52 - y44_54 - y25_50 - y2_57 - y14_22 - y3_40 - y14_40 - y37_42 - y14_49 - y7_10 - y36_46 - y15_23 - y55_59 - y7_19 - y36_55 - y17_51 - y7_28 - y18_37 - y9_56 - y0_7 - y29_43 - y48_56 - y0_16 - y6_50 - y11_16 - y21_48 - y33_40 - y25_36 - y33_49 - y3_17 - y22_30 - y14_26 - y3_35 - y36_41 - y15_18 - y7_14 - y36_50 - y7_23 - y9_42 - y47_59 - y6_27 - y9_60 - y10_15 - y33_35 - y2_29 - y33_44 - y10_51 - y2_47 - y32_48 - y43_48 - y22_25 - y2_56 - y32_57 - y43_57 - y13_53 - y17_32 - y7_9 - y9_37 - y58_60 - y21_29 - y29_42 - y40_42 - y6_49 - y21_47 - y39_55 - y2_15 - y10_28 - y2_33 - y2_42 - y3_7 - y35_39 - y14_16 - y43_52 - y13_48 - y14_25 - y17_18 - y5_34 - y17_36 - y9_32 - y17_54 - y6_17 - y9_50 - y6_26 - y50_60 - y6_35 - y21_33 - y10_14 - y20_46 - y10_23 - y39_59 - y20_55 - y2_28 - y23_60 - y13_25 - y24_34 - y43_47 - y51_60 - y1_41 - y13_43 - y24_43 - y16_39 - y43_56 - y24_52 - y35_52 - y16_48 - y1_59 - y16_57 - y17_31 - y28_31 - y28_40 - y5_47 - y6_12 - y17_49 - y28_49 - y6_30 - y42_51 - y8_58 - y19_58 - y20_41 - y39_54 - y20_50 - y31_50 - y4_42 - y23_55 - y4_51 - y1_27 - y24_29 - y4_60 - y51_55 - y1_36 - y43_51 - y1_45 - y1_54 - y13_56 - y24_56 - y35_56 - y5_15 - y9_13 - y5_24 - y49_58 - y17_35 - y28_35 - y6_7 - y8_53 - y19_53 - y42_55 - y39_40 - y20_36 - y2_9 - y20_45 - y23_41 - y12_50 - y12_59 - y13_24 - y1_22 - y4_55 - y23_59 - y24_33 - y16_29 - y1_40 - y13_42 - y24_51 - y46_48 - y9_17 - y38_53 - y6_11 - y27_43 - y27_52 - y8_48 - y30_48 - y42_59 - y11_53 - y23_27 - y20_40 - y31_40 - y12_36 - y31_58 - y12_54 - y23_54 - y1_26 - y4_59 - y56_60 - y24_37 - y16_33 - y1_44 - y38_39 - y5_14 - y9_21 - y38_57 - y5_32 - y27_29 - y27_38 - y8_34 - y0_30 - y8_43 - y42_54 - y31_35 - y4_18 - y1_12 - y13_14 - y4_45 - y45_46 - y16_28 - y37_60 - y5_9 - y46_47 - y15_41 - y26_41 - y5_18 - y38_43 - y15_50 - y38_52 - y49_52 - y15_59 - y26_59 - y18_55 - y8_20 - y19_20 - y8_29 - y20_21 - y0_52 - y11_52 - y52_53 - y20_30 - y4_22 - y4_31 - y4_40 - y1_16 - y53_54 - y1_25 - y45_59 - y14_53 - y37_55 - y15_27 - y15_36 - y5_13 - y38_56 - y7_50 - y8_15 - y18_50 - y19_24 - y48_60 - y11_20 - y11_29 - y30_42 - y4_8 - y52_57 - y4_17 - y44_53 - y22_34 - y1_20 - y22_52 - y14_57 - y7_27 - y18_27 - y7_36 - y18_36 - y18_45 - y8_10 - y7_54 - y8_19 - y30_37 - y0_33 - y11_42 - y12_16 - y10_46 - y33_48 - y44_48 - y10_55 - y44_57 - y25_53 - y1_6 - y2_60 - y34_49 - y15_26 - y18_22 - y15_44 - y7_49 - y8_14 - y6_53 - y11_19 - y30_32 - y21_51 - y40_55 - y11_28 - y25_30 - y10_41 - y33_43 - y25_39 - y10_50 - y44_52 - y10_59 - y22_24 - y34_35 - y3_29 - y37_40 - y37_49
 Subject to
C1: x0+x3-y0_3 <=1 
C2: x0+x4-y0_4 <=1 
C3: x0+x6 <=1 
C4: x0+x7-y0_7 <=1 
C5: x0+x8-y0_8 <=1 
C6: x0+x12-y0_12 <=1 
C7: x0+x13 <=1 
C8: x0+x14 <=1 
C9: x0+x15 <=1 
C10: x0+x16-y0_16 <=1 
C11: x0+x17 <=1 
C12: x0+x18-y0_18 <=1 
C13: x0+x19 <=1 
C14: x0+x26 <=1 
C15: x0+x30-y0_30 <=1 
C16: x0+x32-y0_32 <=1 
C17: x0+x33-y0_33 <=1 
C18: x0+x34 <=1 
C19: x0+x36 <=1 
C20: x0+x37 <=1 
C21: x0+x40 <=1 
C22: x0+x41 <=1 
C23: x0+x43 <=1 
C24: x0+x46-y0_46 <=1 
C25: x0+x48 <=1 
C26: x0+x49 <=1 
C27: x0+x51 <=1 
C28: x0+x52-y0_52 <=1 
C29: x0+x53 <=1 
C30: x0+x55-y0_55 <=1 
C31: x0+x59-y0_59 <=1 
C32: x1+x4-y1_4 <=1 
C33: x1+x5 <=1 
C34: x1+x6-y1_6 <=1 
C35: x1+x7 <=1 
C36: x1+x8 <=1 
C37: x1+x9 <=1 
C38: x1+x12-y1_12 <=1 
C39: x1+x14 <=1 
C40: x1+x15 <=1 
C41: x1+x16-y1_16 <=1 
C42: x1+x17 <=1 
C43: x1+x19 <=1 
C44: x1+x20-y1_20 <=1 
C45: x1+x21 <=1 
C46: x1+x22-y1_22 <=1 
C47: x1+x23-y1_23 <=1 
C48: x1+x24 <=1 
C49: x1+x25-y1_25 <=1 
C50: x1+x26-y1_26 <=1 
C51: x1+x27-y1_27 <=1 
C52: x1+x29 <=1 
C53: x1+x30 <=1 
C54: x1+x33 <=1 
C55: x1+x34 <=1 
C56: x1+x35 <=1 
C57: x1+x36-y1_36 <=1 
C58: x1+x37 <=1 
C59: x1+x38 <=1 
C60: x1+x39 <=1 
C61: x1+x40-y1_40 <=1 
C62: x1+x41-y1_41 <=1 
C63: x1+x42-y1_42 <=1 
C64: x1+x44-y1_44 <=1 
C65: x1+x45-y1_45 <=1 
C66: x1+x46-y1_46 <=1 
C67: x1+x47 <=1 
C68: x1+x50 <=1 
C69: x1+x51-y1_51 <=1 
C70: x1+x52 <=1 
C71: x1+x53-y1_53 <=1 
C72: x1+x54-y1_54 <=1 
C73: x1+x56-y1_56 <=1 
C74: x1+x57-y1_57 <=1 
C75: x1+x58 <=1 
C76: x1+x59-y1_59 <=1 
C77: x2+x3 <=1 
C78: x2+x4 <=1 
C79: x2+x6 <=1 
C80: x2+x7-y2_7 <=1 
C81: x2+x8-y2_8 <=1 
C82: x2+x9-y2_9 <=1 
C83: x2+x10 <=1 
C84: x2+x15-y2_15 <=1 
C85: x2+x16 <=1 
C86: x2+x17 <=1 
C87: x2+x21-y2_21 <=1 
C88: x2+x22 <=1 
C89: x2+x24 <=1 
C90: x2+x26-y2_26 <=1 
C91: x2+x28-y2_28 <=1 
C92: x2+x29-y2_29 <=1 
C93: x2+x33-y2_33 <=1 
C94: x2+x34 <=1 
C95: x2+x35 <=1 
C96: x2+x39-y2_39 <=1 
C97: x2+x40-y2_40 <=1 
C98: x2+x41-y2_41 <=1 
C99: x2+x42-y2_42 <=1 
C100: x2+x43 <=1 
C101: x2+x44-y2_44 <=1 
C102: x2+x45-y2_45 <=1 
C103: x2+x47-y2_47 <=1 
C104: x2+x48 <=1 
C105: x2+x50 <=1 
C106: x2+x51 <=1 
C107: x2+x53-y2_53 <=1 
C108: x2+x56-y2_56 <=1 
C109: x2+x57-y2_57 <=1 
C110: x2+x59-y2_59 <=1 
C111: x2+x60-y2_60 <=1 
C112: x3+x4 <=1 
C113: x3+x5-y3_5 <=1 
C114: x3+x6-y3_6 <=1 
C115: x3+x7-y3_7 <=1 
C116: x3+x10-y3_10 <=1 
C117: x3+x12 <=1 
C118: x3+x13 <=1 
C119: x3+x14-y3_14 <=1 
C120: x3+x15 <=1 
C121: x3+x16 <=1 
C122: x3+x17-y3_17 <=1 
C123: x3+x18 <=1 
C124: x3+x19-y3_19 <=1 
C125: x3+x20 <=1 
C126: x3+x21 <=1 
C127: x3+x22 <=1 
C128: x3+x24 <=1 
C129: x3+x25 <=1 
C130: x3+x27-y3_27 <=1 
C131: x3+x28-y3_28 <=1 
C132: x3+x29-y3_29 <=1 
C133: x3+x31 <=1 
C134: x3+x32 <=1 
C135: x3+x34 <=1 
C136: x3+x35-y3_35 <=1 
C137: x3+x36-y3_36 <=1 
C138: x3+x38 <=1 
C139: x3+x40-y3_40 <=1 
C140: x3+x41 <=1 
C141: x3+x42-y3_42 <=1 
C142: x3+x44 <=1 
C143: x3+x45-y3_45 <=1 
C144: x3+x46-y3_46 <=1 
C145: x3+x47 <=1 
C146: x3+x48 <=1 
C147: x3+x49 <=1 
C148: x3+x50-y3_50 <=1 
C149: x3+x51-y3_51 <=1 
C150: x3+x53 <=1 
C151: x3+x56 <=1 
C152: x3+x59 <=1 
C153: x4+x5 <=1 
C154: x4+x6 <=1 
C155: x4+x8-y4_8 <=1 
C156: x4+x9-y4_9 <=1 
C157: x4+x11-y4_11 <=1 
C158: x4+x17-y4_17 <=1 
C159: x4+x18-y4_18 <=1 
C160: x4+x19-y4_19 <=1 
C161: x4+x21 <=1 
C162: x4+x22-y4_22 <=1 
C163: x4+x24 <=1 
C164: x4+x28 <=1 
C165: x4+x29-y4_29 <=1 
C166: x4+x31-y4_31 <=1 
C167: x4+x33 <=1 
C168: x4+x35 <=1 
C169: x4+x36 <=1 
C170: x4+x37 <=1 
C171: x4+x38-y4_38 <=1 
C172: x4+x40-y4_40 <=1 
C173: x4+x41 <=1 
C174: x4+x42-y4_42 <=1 
C175: x4+x44-y4_44 <=1 
C176: x4+x45-y4_45 <=1 
C177: x4+x47-y4_47 <=1 
C178: x4+x48 <=1 
C179: x4+x51-y4_51 <=1 
C180: x4+x52 <=1 
C181: x4+x54 <=1 
C182: x4+x55-y4_55 <=1 
C183: x4+x56 <=1 
C184: x4+x57-y4_57 <=1 
C185: x4+x58-y4_58 <=1 
C186: x4+x59-y4_59 <=1 
C187: x4+x60-y4_60 <=1 
C188: x5+x8-y5_8 <=1 
C189: x5+x9-y5_9 <=1 
C190: x5+x12-y5_12 <=1 
C191: x5+x13-y5_13 <=1 
C192: x5+x14-y5_14 <=1 
C193: x5+x15-y5_15 <=1 
C194: x5+x16-y5_16 <=1 
C195: x5+x17 <=1 
C196: x5+x18-y5_18 <=1 
C197: x5+x21-y5_21 <=1 
C198: x5+x23 <=1 
C199: x5+x24-y5_24 <=1 
C200: x5+x26-y5_26 <=1 
C201: x5+x30-y5_30 <=1 
C202: x5+x31 <=1 
C203: x5+x32-y5_32 <=1 
C204: x5+x34-y5_34 <=1 
C205: x5+x35 <=1 
C206: x5+x36 <=1 
C207: x5+x40-y5_40 <=1 
C208: x5+x41 <=1 
C209: x5+x43 <=1 
C210: x5+x45-y5_45 <=1 
C211: x5+x46 <=1 
C212: x5+x47-y5_47 <=1 
C213: x5+x54-y5_54 <=1 
C214: x5+x55-y5_55 <=1 
C215: x5+x59 <=1 
C216: x5+x60-y5_60 <=1 
C217: x6+x7-y6_7 <=1 
C218: x6+x10-y6_10 <=1 
C219: x6+x11-y6_11 <=1 
C220: x6+x12-y6_12 <=1 
C221: x6+x13-y6_13 <=1 
C222: x6+x14 <=1 
C223: x6+x15-y6_15 <=1 
C224: x6+x16 <=1 
C225: x6+x17-y6_17 <=1 
C226: x6+x19 <=1 
C227: x6+x20 <=1 
C228: x6+x21 <=1 
C229: x6+x22 <=1 
C230: x6+x23 <=1 
C231: x6+x24-y6_24 <=1 
C232: x6+x25 <=1 
C233: x6+x26-y6_26 <=1 
C234: x6+x27-y6_27 <=1 
C235: x6+x29 <=1 
C236: x6+x30-y6_30 <=1 
C237: x6+x32-y6_32 <=1 
C238: x6+x34 <=1 
C239: x6+x35-y6_35 <=1 
C240: x6+x36 <=1 
C241: x6+x41 <=1 
C242: x6+x43 <=1 
C243: x6+x46 <=1 
C244: x6+x47 <=1 
C245: x6+x48-y6_48 <=1 
C246: x6+x49-y6_49 <=1 
C247: x6+x50-y6_50 <=1 
C248: x6+x51 <=1 
C249: x6+x52-y6_52 <=1 
C250: x6+x53-y6_53 <=1 
C251: x6+x54 <=1 
C252: x6+x56 <=1 
C253: x6+x58 <=1 
C254: x6+x60 <=1 
C255: x7+x8 <=1 
C256: x7+x9-y7_9 <=1 
C257: x7+x10-y7_10 <=1 
C258: x7+x13 <=1 
C259: x7+x14-y7_14 <=1 
C260: x7+x15 <=1 
C261: x7+x16-y7_16 <=1 
C262: x7+x17 <=1 
C263: x7+x19-y7_19 <=1 
C264: x7+x20-y7_20 <=1 
C265: x7+x23-y7_23 <=1 
C266: x7+x24-y7_24 <=1 
C267: x7+x26 <=1 
C268: x7+x27-y7_27 <=1 
C269: x7+x28-y7_28 <=1 
C270: x7+x29-y7_29 <=1 
C271: x7+x35 <=1 
C272: x7+x36-y7_36 <=1 
C273: x7+x38-y7_38 <=1 
C274: x7+x40 <=1 
C275: x7+x41 <=1 
C276: x7+x42-y7_42 <=1 
C277: x7+x43 <=1 
C278: x7+x47 <=1 
C279: x7+x49-y7_49 <=1 
C280: x7+x50-y7_50 <=1 
C281: x7+x52 <=1 
C282: x7+x53-y7_53 <=1 
C283: x7+x54-y7_54 <=1 
C284: x7+x56 <=1 
C285: x7+x57-y7_57 <=1 
C286: x7+x59 <=1 
C287: x8+x9-y8_9 <=1 
C288: x8+x10-y8_10 <=1 
C289: x8+x11 <=1 
C290: x8+x13 <=1 
C291: x8+x14-y8_14 <=1 
C292: x8+x15-y8_15 <=1 
C293: x8+x17 <=1 
C294: x8+x18 <=1 
C295: x8+x19-y8_19 <=1 
C296: x8+x20-y8_20 <=1 
C297: x8+x21-y8_21 <=1 
C298: x8+x29-y8_29 <=1 
C299: x8+x30-y8_30 <=1 
C300: x8+x32-y8_32 <=1 
C301: x8+x34-y8_34 <=1 
C302: x8+x35 <=1 
C303: x8+x36 <=1 
C304: x8+x37 <=1 
C305: x8+x38 <=1 
C306: x8+x39 <=1 
C307: x8+x40 <=1 
C308: x8+x42 <=1 
C309: x8+x43-y8_43 <=1 
C310: x8+x45 <=1 
C311: x8+x46 <=1 
C312: x8+x47 <=1 
C313: x8+x48-y8_48 <=1 
C314: x8+x53-y8_53 <=1 
C315: x8+x55 <=1 
C316: x8+x56 <=1 
C317: x8+x58-y8_58 <=1 
C318: x8+x59-y8_59 <=1 
C319: x8+x60-y8_60 <=1 
C320: x9+x10 <=1 
C321: x9+x11 <=1 
C322: x9+x12 <=1 
C323: x9+x13-y9_13 <=1 
C324: x9+x14 <=1 
C325: x9+x15 <=1 
C326: x9+x17-y9_17 <=1 
C327: x9+x18 <=1 
C328: x9+x19-y9_19 <=1 
C329: x9+x20-y9_20 <=1 
C330: x9+x21-y9_21 <=1 
C331: x9+x22 <=1 
C332: x9+x23 <=1 
C333: x9+x24 <=1 
C334: x9+x25 <=1 
C335: x9+x28 <=1 
C336: x9+x29 <=1 
C337: x9+x30-y9_30 <=1 
C338: x9+x32-y9_32 <=1 
C339: x9+x34 <=1 
C340: x9+x35 <=1 
C341: x9+x36 <=1 
C342: x9+x37-y9_37 <=1 
C343: x9+x38 <=1 
C344: x9+x39 <=1 
C345: x9+x40 <=1 
C346: x9+x41 <=1 
C347: x9+x42-y9_42 <=1 
C348: x9+x43-y9_43 <=1 
C349: x9+x44-y9_44 <=1 
C350: x9+x47-y9_47 <=1 
C351: x9+x48-y9_48 <=1 
C352: x9+x49-y9_49 <=1 
C353: x9+x50-y9_50 <=1 
C354: x9+x52-y9_52 <=1 
C355: x9+x54 <=1 
C356: x9+x56-y9_56 <=1 
C357: x9+x58-y9_58 <=1 
C358: x9+x60-y9_60 <=1 
C359: x10+x11-y10_11 <=1 
C360: x10+x12-y10_12 <=1 
C361: x10+x14-y10_14 <=1 
C362: x10+x15-y10_15 <=1 
C363: x10+x17-y10_17 <=1 
C364: x10+x18 <=1 
C365: x10+x21 <=1 
C366: x10+x22 <=1 
C367: x10+x23-y10_23 <=1 
C368: x10+x24 <=1 
C369: x10+x25-y10_25 <=1 
C370: x10+x26 <=1 
C371: x10+x27-y10_27 <=1 
C372: x10+x28-y10_28 <=1 
C373: x10+x31-y10_31 <=1 
C374: x10+x33 <=1 
C375: x10+x35 <=1 
C376: x10+x37 <=1 
C377: x10+x38 <=1 
C378: x10+x39-y10_39 <=1 
C379: x10+x40 <=1 
C380: x10+x41-y10_41 <=1 
C381: x10+x44 <=1 
C382: x10+x45 <=1 
C383: x10+x46-y10_46 <=1 
C384: x10+x48-y10_48 <=1 
C385: x10+x49 <=1 
C386: x10+x50-y10_50 <=1 
C387: x10+x51-y10_51 <=1 
C388: x10+x52-y10_52 <=1 
C389: x10+x53-y10_53 <=1 
C390: x10+x54-y10_54 <=1 
C391: x10+x55-y10_55 <=1 
C392: x10+x56 <=1 
C393: x10+x59-y10_59 <=1 
C394: x10+x60 <=1 
C395: x11+x12-y11_12 <=1 
C396: x11+x13 <=1 
C397: x11+x16-y11_16 <=1 
C398: x11+x18-y11_18 <=1 
C399: x11+x19-y11_19 <=1 
C400: x11+x20-y11_20 <=1 
C401: x11+x22 <=1 
C402: x11+x25 <=1 
C403: x11+x27-y11_27 <=1 
C404: x11+x28-y11_28 <=1 
C405: x11+x29-y11_29 <=1 
C406: x11+x30-y11_30 <=1 
C407: x11+x32-y11_32 <=1 
C408: x11+x34 <=1 
C409: x11+x36-y11_36 <=1 
C410: x11+x37-y11_37 <=1 
C411: x11+x38 <=1 
C412: x11+x40 <=1 
C413: x11+x41-y11_41 <=1 
C414: x11+x42-y11_42 <=1 
C415: x11+x43 <=1 
C416: x11+x45-y11_45 <=1 
C417: x11+x51-y11_51 <=1 
C418: x11+x52-y11_52 <=1 
C419: x11+x53-y11_53 <=1 
C420: x11+x55 <=1 
C421: x11+x57 <=1 
C422: x11+x59 <=1 
C423: x12+x13 <=1 
C424: x12+x14 <=1 
C425: x12+x15-y12_15 <=1 
C426: x12+x16-y12_16 <=1 
C427: x12+x18 <=1 
C428: x12+x19-y12_19 <=1 
C429: x12+x20 <=1 
C430: x12+x21 <=1 
C431: x12+x22 <=1 
C432: x12+x23-y12_23 <=1 
C433: x12+x25-y12_25 <=1 
C434: x12+x26 <=1 
C435: x12+x30 <=1 
C436: x12+x32 <=1 
C437: x12+x34-y12_34 <=1 
C438: x12+x35 <=1 
C439: x12+x36-y12_36 <=1 
C440: x12+x38 <=1 
C441: x12+x39 <=1 
C442: x12+x42 <=1 
C443: x12+x43-y12_43 <=1 
C444: x12+x45 <=1 
C445: x12+x46 <=1 
C446: x12+x47-y12_47 <=1 
C447: x12+x50-y12_50 <=1 
C448: x12+x51 <=1 
C449: x12+x52-y12_52 <=1 
C450: x12+x53 <=1 
C451: x12+x54-y12_54 <=1 
C452: x12+x56 <=1 
C453: x12+x59-y12_59 <=1 
C454: x12+x60 <=1 
C455: x13+x14-y13_14 <=1 
C456: x13+x16-y13_16 <=1 
C457: x13+x18 <=1 
C458: x13+x20 <=1 
C459: x13+x21-y13_21 <=1 
C460: x13+x22-y13_22 <=1 
C461: x13+x24-y13_24 <=1 
C462: x13+x25-y13_25 <=1 
C463: x13+x26-y13_26 <=1 
C464: x13+x28 <=1 
C465: x13+x32 <=1 
C466: x13+x33 <=1 
C467: x13+x36 <=1 
C468: x13+x38 <=1 
C469: x13+x39 <=1 
C470: x13+x40 <=1 
C471: x13+x42-y13_42 <=1 
C472: x13+x43-y13_43 <=1 
C473: x13+x45 <=1 
C474: x13+x48-y13_48 <=1 
C475: x13+x49 <=1 
C476: x13+x50-y13_50 <=1 
C477: x13+x51-y13_51 <=1 
C478: x13+x53-y13_53 <=1 
C479: x13+x55-y13_55 <=1 
C480: x13+x56-y13_56 <=1 
C481: x13+x58 <=1 
C482: x13+x59-y13_59 <=1 
C483: x13+x60 <=1 
C484: x14+x16-y14_16 <=1 
C485: x14+x17 <=1 
C486: x14+x18 <=1 
C487: x14+x22-y14_22 <=1 
C488: x14+x24-y14_24 <=1 
C489: x14+x25-y14_25 <=1 
C490: x14+x26-y14_26 <=1 
C491: x14+x28 <=1 
C492: x14+x29 <=1 
C493: x14+x30 <=1 
C494: x14+x31 <=1 
C495: x14+x32-y14_32 <=1 
C496: x14+x34 <=1 
C497: x14+x37-y14_37 <=1 
C498: x14+x40-y14_40 <=1 
C499: x14+x41 <=1 
C500: x14+x42-y14_42 <=1 
C501: x14+x44 <=1 
C502: x14+x45-y14_45 <=1 
C503: x14+x46-y14_46 <=1 
C504: x14+x49-y14_49 <=1 
C505: x14+x50-y14_50 <=1 
C506: x14+x51-y14_51 <=1 
C507: x14+x53-y14_53 <=1 
C508: x14+x55-y14_55 <=1 
C509: x14+x56 <=1 
C510: x14+x57-y14_57 <=1 
C511: x15+x16-y15_16 <=1 
C512: x15+x18-y15_18 <=1 
C513: x15+x19-y15_19 <=1 
C514: x15+x23-y15_23 <=1 
C515: x15+x25-y15_25 <=1 
C516: x15+x26-y15_26 <=1 
C517: x15+x27-y15_27 <=1 
C518: x15+x29-y15_29 <=1 
C519: x15+x30 <=1 
C520: x15+x32 <=1 
C521: x15+x36-y15_36 <=1 
C522: x15+x37-y15_37 <=1 
C523: x15+x38-y15_38 <=1 
C524: x15+x40 <=1 
C525: x15+x41-y15_41 <=1 
C526: x15+x43 <=1 
C527: x15+x44-y15_44 <=1 
C528: x15+x47-y15_47 <=1 
C529: x15+x50-y15_50 <=1 
C530: x15+x51 <=1 
C531: x15+x52-y15_52 <=1 
C532: x15+x53-y15_53 <=1 
C533: x15+x54 <=1 
C534: x15+x55 <=1 
C535: x15+x59-y15_59 <=1 
C536: x16+x17-y16_17 <=1 
C537: x16+x18-y16_18 <=1 
C538: x16+x21 <=1 
C539: x16+x22 <=1 
C540: x16+x24 <=1 
C541: x16+x26-y16_26 <=1 
C542: x16+x28-y16_28 <=1 
C543: x16+x29-y16_29 <=1 
C544: x16+x31 <=1 
C545: x16+x33-y16_33 <=1 
C546: x16+x34 <=1 
C547: x16+x35 <=1 
C548: x16+x37 <=1 
C549: x16+x39-y16_39 <=1 
C550: x16+x40 <=1 
C551: x16+x41-y16_41 <=1 
C552: x16+x42 <=1 
C553: x16+x45-y16_45 <=1 
C554: x16+x48-y16_48 <=1 
C555: x16+x50 <=1 
C556: x16+x51 <=1 
C557: x16+x55-y16_55 <=1 
C558: x16+x57-y16_57 <=1 
C559: x16+x59 <=1 
C560: x16+x60-y16_60 <=1 
C561: x17+x18-y17_18 <=1 
C562: x17+x19 <=1 
C563: x17+x23 <=1 
C564: x17+x24-y17_24 <=1 
C565: x17+x28 <=1 
C566: x17+x31-y17_31 <=1 
C567: x17+x32-y17_32 <=1 
C568: x17+x34-y17_34 <=1 
C569: x17+x35-y17_35 <=1 
C570: x17+x36-y17_36 <=1 
C571: x17+x37-y17_37 <=1 
C572: x17+x38 <=1 
C573: x17+x39 <=1 
C574: x17+x40 <=1 
C575: x17+x41 <=1 
C576: x17+x43-y17_43 <=1 
C577: x17+x44 <=1 
C578: x17+x45 <=1 
C579: x17+x46 <=1 
C580: x17+x49-y17_49 <=1 
C581: x17+x51-y17_51 <=1 
C582: x17+x52-y17_52 <=1 
C583: x17+x54-y17_54 <=1 
C584: x17+x58-y17_58 <=1 
C585: x17+x60 <=1 
C586: x18+x19 <=1 
C587: x18+x20-y18_20 <=1 
C588: x18+x21-y18_21 <=1 
C589: x18+x22-y18_22 <=1 
C590: x18+x23 <=1 
C591: x18+x24-y18_24 <=1 
C592: x18+x26-y18_26 <=1 
C593: x18+x27-y18_27 <=1 
C594: x18+x29-y18_29 <=1 
C595: x18+x30-y18_30 <=1 
C596: x18+x31 <=1 
C597: x18+x33-y18_33 <=1 
C598: x18+x36-y18_36 <=1 
C599: x18+x37-y18_37 <=1 
C600: x18+x39 <=1 
C601: x18+x40 <=1 
C602: x18+x42-y18_42 <=1 
C603: x18+x43-y18_43 <=1 
C604: x18+x45-y18_45 <=1 
C605: x18+x46 <=1 
C606: x18+x48 <=1 
C607: x18+x49 <=1 
C608: x18+x50-y18_50 <=1 
C609: x18+x51 <=1 
C610: x18+x53-y18_53 <=1 
C611: x18+x55-y18_55 <=1 
C612: x18+x56-y18_56 <=1 
C613: x18+x57 <=1 
C614: x18+x58-y18_58 <=1 
C615: x18+x59 <=1 
C616: x18+x60 <=1 
C617: x19+x20-y19_20 <=1 
C618: x19+x21 <=1 
C619: x19+x22-y19_22 <=1 
C620: x19+x24-y19_24 <=1 
C621: x19+x25-y19_25 <=1 
C622: x19+x26-y19_26 <=1 
C623: x19+x30 <=1 
C624: x19+x32 <=1 
C625: x19+x33 <=1 
C626: x19+x35 <=1 
C627: x19+x38 <=1 
C628: x19+x40-y19_40 <=1 
C629: x19+x45-y19_45 <=1 
C630: x19+x47 <=1 
C631: x19+x49 <=1 
C632: x19+x50-y19_50 <=1 
C633: x19+x52 <=1 
C634: x19+x53-y19_53 <=1 
C635: x19+x58-y19_58 <=1 
C636: x19+x59 <=1 
C637: x20+x21-y20_21 <=1 
C638: x20+x22 <=1 
C639: x20+x23 <=1 
C640: x20+x26 <=1 
C641: x20+x28 <=1 
C642: x20+x29 <=1 
C643: x20+x30-y20_30 <=1 
C644: x20+x31 <=1 
C645: x20+x32-y20_32 <=1 
C646: x20+x33 <=1 
C647: x20+x34-y20_34 <=1 
C648: x20+x35 <=1 
C649: x20+x36-y20_36 <=1 
C650: x20+x37 <=1 
C651: x20+x38 <=1 
C652: x20+x39 <=1 
C653: x20+x40-y20_40 <=1 
C654: x20+x41-y20_41 <=1 
C655: x20+x42-y20_42 <=1 
C656: x20+x43-y20_43 <=1 
C657: x20+x44 <=1 
C658: x20+x45-y20_45 <=1 
C659: x20+x46-y20_46 <=1 
C660: x20+x47-y20_47 <=1 
C661: x20+x50-y20_50 <=1 
C662: x20+x51 <=1 
C663: x20+x53-y20_53 <=1 
C664: x20+x54 <=1 
C665: x20+x55-y20_55 <=1 
C666: x20+x57 <=1 
C667: x20+x58 <=1 
C668: x21+x22 <=1 
C669: x21+x24 <=1 
C670: x21+x26-y21_26 <=1 
C671: x21+x28 <=1 
C672: x21+x29-y21_29 <=1 
C673: x21+x30 <=1 
C674: x21+x31-y21_31 <=1 
C675: x21+x32 <=1 
C676: x21+x33-y21_33 <=1 
C677: x21+x36 <=1 
C678: x21+x40-y21_40 <=1 
C679: x21+x44-y21_44 <=1 
C680: x21+x45 <=1 
C681: x21+x46 <=1 
C682: x21+x47-y21_47 <=1 
C683: x21+x48-y21_48 <=1 
C684: x21+x50 <=1 
C685: x21+x51-y21_51 <=1 
C686: x21+x53-y21_53 <=1 
C687: x21+x54-y21_54 <=1 
C688: x21+x55 <=1 
C689: x21+x56 <=1 
C690: x21+x58-y21_58 <=1 
C691: x21+x59-y21_59 <=1 
C692: x22+x24-y22_24 <=1 
C693: x22+x25-y22_25 <=1 
C694: x22+x28-y22_28 <=1 
C695: x22+x29 <=1 
C696: x22+x30-y22_30 <=1 
C697: x22+x31 <=1 
C698: x22+x32 <=1 
C699: x22+x33 <=1 
C700: x22+x34-y22_34 <=1 
C701: x22+x37 <=1 
C702: x22+x38 <=1 
C703: x22+x40-y22_40 <=1 
C704: x22+x41 <=1 
C705: x22+x46 <=1 
C706: x22+x48 <=1 
C707: x22+x50-y22_50 <=1 
C708: x22+x52-y22_52 <=1 
C709: x22+x55-y22_55 <=1 
C710: x22+x57 <=1 
C711: x22+x58 <=1 
C712: x23+x26 <=1 
C713: x23+x27-y23_27 <=1 
C714: x23+x32 <=1 
C715: x23+x35 <=1 
C716: x23+x36 <=1 
C717: x23+x37 <=1 
C718: x23+x38 <=1 
C719: x23+x41-y23_41 <=1 
C720: x23+x47-y23_47 <=1 
C721: x23+x49 <=1 
C722: x23+x51 <=1 
C723: x23+x52-y23_52 <=1 
C724: x23+x53 <=1 
C725: x23+x54-y23_54 <=1 
C726: x23+x55-y23_55 <=1 
C727: x23+x56-y23_56 <=1 
C728: x23+x58 <=1 
C729: x23+x59-y23_59 <=1 
C730: x23+x60-y23_60 <=1 
C731: x24+x28 <=1 
C732: x24+x29-y24_29 <=1 
C733: x24+x30 <=1 
C734: x24+x31 <=1 
C735: x24+x33-y24_33 <=1 
C736: x24+x34-y24_34 <=1 
C737: x24+x37-y24_37 <=1 
C738: x24+x41-y24_41 <=1 
C739: x24+x42 <=1 
C740: x24+x43-y24_43 <=1 
C741: x24+x44 <=1 
C742: x24+x45-y24_45 <=1 
C743: x24+x46-y24_46 <=1 
C744: x24+x47 <=1 
C745: x24+x48 <=1 
C746: x24+x51-y24_51 <=1 
C747: x24+x52-y24_52 <=1 
C748: x24+x53 <=1 
C749: x24+x54-y24_54 <=1 
C750: x24+x55-y24_55 <=1 
C751: x24+x56-y24_56 <=1 
C752: x24+x57 <=1 
C753: x24+x58 <=1 
C754: x24+x59 <=1 
C755: x25+x26 <=1 
C756: x25+x29 <=1 
C757: x25+x30-y25_30 <=1 
C758: x25+x36-y25_36 <=1 
C759: x25+x39-y25_39 <=1 
C760: x25+x41 <=1 
C761: x25+x43-y25_43 <=1 
C762: x25+x46 <=1 
C763: x25+x47-y25_47 <=1 
C764: x25+x50-y25_50 <=1 
C765: x25+x53-y25_53 <=1 
C766: x25+x54 <=1 
C767: x25+x56-y25_56 <=1 
C768: x25+x57 <=1 
C769: x25+x58 <=1 
C770: x25+x60-y25_60 <=1 
C771: x26+x28 <=1 
C772: x26+x32 <=1 
C773: x26+x33-y26_33 <=1 
C774: x26+x34 <=1 
C775: x26+x35 <=1 
C776: x26+x37 <=1 
C777: x26+x39-y26_39 <=1 
C778: x26+x41-y26_41 <=1 
C779: x26+x43-y26_43 <=1 
C780: x26+x44 <=1 
C781: x26+x47 <=1 
C782: x26+x48 <=1 
C783: x26+x51-y26_51 <=1 
C784: x26+x52-y26_52 <=1 
C785: x26+x54 <=1 
C786: x26+x59-y26_59 <=1 
C787: x27+x28 <=1 
C788: x27+x29-y27_29 <=1 
C789: x27+x30-y27_30 <=1 
C790: x27+x31-y27_31 <=1 
C791: x27+x33 <=1 
C792: x27+x35 <=1 
C793: x27+x37 <=1 
C794: x27+x38-y27_38 <=1 
C795: x27+x42 <=1 
C796: x27+x43-y27_43 <=1 
C797: x27+x46 <=1 
C798: x27+x47 <=1 
C799: x27+x49 <=1 
C800: x27+x50 <=1 
C801: x27+x52-y27_52 <=1 
C802: x27+x53 <=1 
C803: x27+x54-y27_54 <=1 
C804: x27+x58-y27_58 <=1 
C805: x27+x60-y27_60 <=1 
C806: x28+x29 <=1 
C807: x28+x30 <=1 
C808: x28+x31-y28_31 <=1 
C809: x28+x32 <=1 
C810: x28+x35-y28_35 <=1 
C811: x28+x36 <=1 
C812: x28+x37 <=1 
C813: x28+x38 <=1 
C814: x28+x39-y28_39 <=1 
C815: x28+x40-y28_40 <=1 
C816: x28+x42-y28_42 <=1 
C817: x28+x43 <=1 
C818: x28+x47-y28_47 <=1 
C819: x28+x49-y28_49 <=1 
C820: x28+x51 <=1 
C821: x28+x52-y28_52 <=1 
C822: x28+x53-y28_53 <=1 
C823: x28+x54 <=1 
C824: x28+x57 <=1 
C825: x28+x58-y28_58 <=1 
C826: x29+x33 <=1 
C827: x29+x34 <=1 
C828: x29+x36-y29_36 <=1 
C829: x29+x37 <=1 
C830: x29+x38 <=1 
C831: x29+x40-y29_40 <=1 
C832: x29+x42-y29_42 <=1 
C833: x29+x43-y29_43 <=1 
C834: x29+x44 <=1 
C835: x29+x45 <=1 
C836: x29+x47 <=1 
C837: x29+x48-y29_48 <=1 
C838: x29+x49 <=1 
C839: x29+x50-y29_50 <=1 
C840: x29+x52 <=1 
C841: x29+x53 <=1 
C842: x29+x55 <=1 
C843: x29+x57-y29_57 <=1 
C844: x29+x58 <=1 
C845: x29+x59 <=1 
C846: x30+x32-y30_32 <=1 
C847: x30+x34 <=1 
C848: x30+x37-y30_37 <=1 
C849: x30+x39 <=1 
C850: x30+x40-y30_40 <=1 
C851: x30+x42-y30_42 <=1 
C852: x30+x43 <=1 
C853: x30+x44 <=1 
C854: x30+x45 <=1 
C855: x30+x46-y30_46 <=1 
C856: x30+x48-y30_48 <=1 
C857: x30+x49-y30_49 <=1 
C858: x30+x52 <=1 
C859: x30+x53 <=1 
C860: x30+x56 <=1 
C861: x30+x57 <=1 
C862: x30+x60 <=1 
C863: x31+x34-y31_34 <=1 
C864: x31+x35-y31_35 <=1 
C865: x31+x36 <=1 
C866: x31+x38 <=1 
C867: x31+x40-y31_40 <=1 
C868: x31+x42 <=1 
C869: x31+x44 <=1 
C870: x31+x46 <=1 
C871: x31+x47 <=1 
C872: x31+x50-y31_50 <=1 
C873: x31+x51-y31_51 <=1 
C874: x31+x53 <=1 
C875: x31+x54 <=1 
C876: x31+x55 <=1 
C877: x31+x56-y31_56 <=1 
C878: x31+x57 <=1 
C879: x31+x58-y31_58 <=1 
C880: x32+x34 <=1 
C881: x32+x36-y32_36 <=1 
C882: x32+x39-y32_39 <=1 
C883: x32+x40-y32_40 <=1 
C884: x32+x44-y32_44 <=1 
C885: x32+x45 <=1 
C886: x32+x46 <=1 
C887: x32+x47 <=1 
C888: x32+x48-y32_48 <=1 
C889: x32+x49-y32_49 <=1 
C890: x32+x53 <=1 
C891: x32+x54 <=1 
C892: x32+x56 <=1 
C893: x32+x57-y32_57 <=1 
C894: x32+x58 <=1 
C895: x33+x34 <=1 
C896: x33+x35-y33_35 <=1 
C897: x33+x37-y33_37 <=1 
C898: x33+x38 <=1 
C899: x33+x40-y33_40 <=1 
C900: x33+x42 <=1 
C901: x33+x43-y33_43 <=1 
C902: x33+x44-y33_44 <=1 
C903: x33+x46-y33_46 <=1 
C904: x33+x48-y33_48 <=1 
C905: x33+x49-y33_49 <=1 
C906: x33+x50-y33_50 <=1 
C907: x33+x55 <=1 
C908: x33+x59-y33_59 <=1 
C909: x33+x60-y33_60 <=1 
C910: x34+x35-y34_35 <=1 
C911: x34+x38-y34_38 <=1 
C912: x34+x39 <=1 
C913: x34+x40 <=1 
C914: x34+x42-y34_42 <=1 
C915: x34+x44 <=1 
C916: x34+x48-y34_48 <=1 
C917: x34+x49-y34_49 <=1 
C918: x34+x50 <=1 
C919: x34+x51-y34_51 <=1 
C920: x34+x52 <=1 
C921: x34+x53 <=1 
C922: x34+x54 <=1 
C923: x35+x39-y35_39 <=1 
C924: x35+x40 <=1 
C925: x35+x41-y35_41 <=1 
C926: x35+x42 <=1 
C927: x35+x52-y35_52 <=1 
C928: x35+x56-y35_56 <=1 
C929: x35+x57 <=1 
C930: x35+x60-y35_60 <=1 
C931: x36+x37-y36_37 <=1 
C932: x36+x40 <=1 
C933: x36+x41-y36_41 <=1 
C934: x36+x42-y36_42 <=1 
C935: x36+x45 <=1 
C936: x36+x46-y36_46 <=1 
C937: x36+x47-y36_47 <=1 
C938: x36+x50-y36_50 <=1 
C939: x36+x51 <=1 
C940: x36+x55-y36_55 <=1 
C941: x36+x57 <=1 
C942: x37+x38 <=1 
C943: x37+x40-y37_40 <=1 
C944: x37+x42-y37_42 <=1 
C945: x37+x45 <=1 
C946: x37+x47 <=1 
C947: x37+x49-y37_49 <=1 
C948: x37+x51 <=1 
C949: x37+x52-y37_52 <=1 
C950: x37+x53-y37_53 <=1 
C951: x37+x54 <=1 
C952: x37+x55-y37_55 <=1 
C953: x37+x56-y37_56 <=1 
C954: x37+x58 <=1 
C955: x37+x60-y37_60 <=1 
C956: x38+x39-y38_39 <=1 
C957: x38+x40-y38_40 <=1 
C958: x38+x43-y38_43 <=1 
C959: x38+x44 <=1 
C960: x38+x45-y38_45 <=1 
C961: x38+x46 <=1 
C962: x38+x49-y38_49 <=1 
C963: x38+x52-y38_52 <=1 
C964: x38+x53-y38_53 <=1 
C965: x38+x54-y38_54 <=1 
C966: x38+x55-y38_55 <=1 
C967: x38+x56-y38_56 <=1 
C968: x38+x57-y38_57 <=1 
C969: x38+x59 <=1 
C970: x39+x40-y39_40 <=1 
C971: x39+x41 <=1 
C972: x39+x42-y39_42 <=1 
C973: x39+x43 <=1 
C974: x39+x44 <=1 
C975: x39+x46 <=1 
C976: x39+x48 <=1 
C977: x39+x51 <=1 
C978: x39+x52-y39_52 <=1 
C979: x39+x53 <=1 
C980: x39+x54-y39_54 <=1 
C981: x39+x55-y39_55 <=1 
C982: x39+x58 <=1 
C983: x39+x59-y39_59 <=1 
C984: x39+x60 <=1 
C985: x40+x41 <=1 
C986: x40+x42-y40_42 <=1 
C987: x40+x43 <=1 
C988: x40+x44-y40_44 <=1 
C989: x40+x45 <=1 
C990: x40+x46 <=1 
C991: x40+x49 <=1 
C992: x40+x51 <=1 
C993: x40+x53-y40_53 <=1 
C994: x40+x54 <=1 
C995: x40+x55-y40_55 <=1 
C996: x40+x56 <=1 
C997: x40+x57-y40_57 <=1 
C998: x40+x58-y40_58 <=1 
C999: x40+x60 <=1 
C1000: x41+x45 <=1 
C1001: x41+x46-y41_46 <=1 
C1002: x41+x47 <=1 
C1003: x41+x48 <=1 
C1004: x41+x50 <=1 
C1005: x41+x51 <=1 
C1006: x41+x54-y41_54 <=1 
C1007: x41+x55-y41_55 <=1 
C1008: x41+x57 <=1 
C1009: x41+x58-y41_58 <=1 
C1010: x42+x43-y42_43 <=1 
C1011: x42+x44-y42_44 <=1 
C1012: x42+x46 <=1 
C1013: x42+x50 <=1 
C1014: x42+x51-y42_51 <=1 
C1015: x42+x52 <=1 
C1016: x42+x53-y42_53 <=1 
C1017: x42+x54-y42_54 <=1 
C1018: x42+x55-y42_55 <=1 
C1019: x42+x56 <=1 
C1020: x42+x57-y42_57 <=1 
C1021: x42+x58-y42_58 <=1 
C1022: x42+x59-y42_59 <=1 
C1023: x42+x60 <=1 
C1024: x43+x44-y43_44 <=1 
C1025: x43+x45-y43_45 <=1 
C1026: x43+x47-y43_47 <=1 
C1027: x43+x48-y43_48 <=1 
C1028: x43+x49 <=1 
C1029: x43+x51-y43_51 <=1 
C1030: x43+x52-y43_52 <=1 
C1031: x43+x53-y43_53 <=1 
C1032: x43+x54-y43_54 <=1 
C1033: x43+x55-y43_55 <=1 
C1034: x43+x56-y43_56 <=1 
C1035: x43+x57-y43_57 <=1 
C1036: x43+x59 <=1 
C1037: x44+x46 <=1 
C1038: x44+x47-y44_47 <=1 
C1039: x44+x48-y44_48 <=1 
C1040: x44+x49 <=1 
C1041: x44+x52-y44_52 <=1 
C1042: x44+x53-y44_53 <=1 
C1043: x44+x54-y44_54 <=1 
C1044: x44+x55 <=1 
C1045: x44+x56-y44_56 <=1 
C1046: x44+x57-y44_57 <=1 
C1047: x44+x59 <=1 
C1048: x44+x60 <=1 
C1049: x45+x46-y45_46 <=1 
C1050: x45+x48 <=1 
C1051: x45+x51-y45_51 <=1 
C1052: x45+x52 <=1 
C1053: x45+x53-y45_53 <=1 
C1054: x45+x54 <=1 
C1055: x45+x58 <=1 
C1056: x45+x59-y45_59 <=1 
C1057: x45+x60 <=1 
C1058: x46+x47-y46_47 <=1 
C1059: x46+x48-y46_48 <=1 
C1060: x46+x50-y46_50 <=1 
C1061: x46+x53 <=1 
C1062: x46+x54 <=1 
C1063: x46+x55-y46_55 <=1 
C1064: x46+x56 <=1 
C1065: x46+x57 <=1 
C1066: x46+x58 <=1 
C1067: x47+x48 <=1 
C1068: x47+x49 <=1 
C1069: x47+x51 <=1 
C1070: x47+x54 <=1 
C1071: x47+x56-y47_56 <=1 
C1072: x47+x57-y47_57 <=1 
C1073: x47+x59-y47_59 <=1 
C1074: x47+x60 <=1 
C1075: x48+x49-y48_49 <=1 
C1076: x48+x50 <=1 
C1077: x48+x52-y48_52 <=1 
C1078: x48+x53-y48_53 <=1 
C1079: x48+x55 <=1 
C1080: x48+x56-y48_56 <=1 
C1081: x48+x60-y48_60 <=1 
C1082: x49+x52-y49_52 <=1 
C1083: x49+x54-y49_54 <=1 
C1084: x49+x55 <=1 
C1085: x49+x58-y49_58 <=1 
C1086: x50+x51-y50_51 <=1 
C1087: x50+x52 <=1 
C1088: x50+x53 <=1 
C1089: x50+x55 <=1 
C1090: x50+x56-y50_56 <=1 
C1091: x50+x58 <=1 
C1092: x50+x59 <=1 
C1093: x50+x60-y50_60 <=1 
C1094: x51+x53 <=1 
C1095: x51+x55-y51_55 <=1 
C1096: x51+x59-y51_59 <=1 
C1097: x51+x60-y51_60 <=1 
C1098: x52+x53-y52_53 <=1 
C1099: x52+x54-y52_54 <=1 
C1100: x52+x55 <=1 
C1101: x52+x56 <=1 
C1102: x52+x57-y52_57 <=1 
C1103: x52+x58-y52_58 <=1 
C1104: x52+x59 <=1 
C1105: x53+x54-y53_54 <=1 
C1106: x53+x55 <=1 
C1107: x53+x56 <=1 
C1108: x53+x59 <=1 
C1109: x53+x60 <=1 
C1110: x54+x55 <=1 
C1111: x54+x57 <=1 
C1112: x54+x58 <=1 
C1113: x55+x56-y55_56 <=1 
C1114: x55+x57 <=1 
C1115: x55+x59-y55_59 <=1 
C1116: x55+x60 <=1 
C1117: x56+x57 <=1 
C1118: x56+x58 <=1 
C1119: x56+x59 <=1 
C1120: x56+x60-y56_60 <=1 
C1121: x58+x59 <=1 
C1122: x58+x60-y58_60 <=1 

binary
x0
x1
x2
x3
x4
x5
x6
x7
x8
x9
x10
x11
x12
x13
x14
x15
x16
x17
x18
x19
x20
x21
x22
x23
x24
x25
x26
x27
x28
x29
x30
x31
x32
x33
x34
x35
x36
x37
x38
x39
x40
x41
x42
x43
x44
x45
x46
x47
x48
x49
x50
x51
x52
x53
x54
x55
x56
x57
x58
x59
x60
