problem_generation/data/GISP/train/er_n=61_m=1122_p=0.60_SET2_setparam=100.00_alpha=0.50_767.sol
objective value:                                 1265
x2                                                  1 	(obj:100)
x5                                                  1 	(obj:100)
x8                                                  1 	(obj:100)
x14                                                 1 	(obj:100)
x15                                                 1 	(obj:100)
x21                                                 1 	(obj:100)
x26                                                 1 	(obj:100)
x33                                                 1 	(obj:100)
x49                                                 1 	(obj:100)
x52                                                 1 	(obj:100)
x57                                                 1 	(obj:100)
x58                                                 1 	(obj:100)
x60                                                 1 	(obj:100)
y5_60                                               1 	(obj:-1)
y2_8                                                1 	(obj:-1)
y2_26                                               1 	(obj:-1)
y21_26                                              1 	(obj:-1)
y2_21                                               1 	(obj:-1)
y8_60                                               1 	(obj:-1)
y5_8                                                1 	(obj:-1)
y5_26                                               1 	(obj:-1)
y5_21                                               1 	(obj:-1)
y15_52                                              1 	(obj:-1)
y26_52                                              1 	(obj:-1)
y33_60                                              1 	(obj:-1)
y26_33                                              1 	(obj:-1)
y8_21                                               1 	(obj:-1)
y21_58                                              1 	(obj:-1)
y52_58                                              1 	(obj:-1)
y2_57                                               1 	(obj:-1)
y14_49                                              1 	(obj:-1)
y33_49                                              1 	(obj:-1)
y14_26                                              1 	(obj:-1)
y58_60                                              1 	(obj:-1)
y2_15                                               1 	(obj:-1)
y2_33                                               1 	(obj:-1)
y21_33                                              1 	(obj:-1)
y8_58                                               1 	(obj:-1)
y5_15                                               1 	(obj:-1)
y49_58                                              1 	(obj:-1)
y5_14                                               1 	(obj:-1)
y49_52                                              1 	(obj:-1)
y8_15                                               1 	(obj:-1)
y52_57                                              1 	(obj:-1)
y14_57                                              1 	(obj:-1)
y2_60                                               1 	(obj:-1)
y15_26                                              1 	(obj:-1)
y8_14                                               1 	(obj:-1)
